(set-logic QF_S)
(declare-fun var0 () String)
(declare-fun var1 () Int)
(declare-fun var2 () String)
(declare-fun var3 () String)
(declare-fun var4 () Int)
(declare-fun var5 () Int)
(declare-fun var6 () String)
(declare-fun var7 () Int)
(assert (str.in.re (str.substr (str.at var0 var1) (str.len var2) (str.to.int var3)) (re.+ re.allchar)))
(assert (not (< var4 var5)))
(assert (str.prefixof (str.substr var6 var7 var1) (str.at var2 var5)))
(assert (str.in.re (str.replace (str.replace var6 var0 var3) (str.at var2 68) (str.substr var6 var4 var7)) (re.* re.allchar)))
(check-sat)